40
    82    18    55    14     1    36    73    72    26     3     8    18     2    77    11    26     5    66     7    68    37    35   100    21    29    98    73    67    41    26    87    87    59    41    81    69    99    17    71     2
     5     5     4     9    10     2     1     5     3     1     6     2     4     8     8     2     1     7     1     7    10     8     2     1     6     6     1     9     2     2     3     7     1     4     4    10     2     5     5     7
     0     0   123     0     5   168   104    41     0     0     0    62   170    61   163    59     0   113    76     0    30    55     0   136    68   179     0     0    54     0     0     0     0     0   154    33     0    28   130     0
